15 40
25
2 11 13 0
3 2 10 21
7 10 0 30
4 8 5 0
5 9 4 20
2 7 8 13
1 4 4 4
1 6 9 20
5 4 0 0
3 8 10 13
3 1 4 29
5 5 8 8
1 3 12 23
4 12 4 8
2 6 11 29
4 2 11 38
4 11 7 29
2 10 13 22
2 3 10 23
2 11 13 11
4 3 9 26
4 26 0 4
4 8 9 0
2 3 11 35
2 6 13 32
